NAME : in_house_7_11
TYPE : TSP
DIMENSION : 7
EDGE_WEIGHT_TYPE : EXPLICIT
EDGE_WEIGHT_FORMAT : UPPER_ROW
COMMENT : INVERSION_SHIFT=7
EDGE_WEIGHT_SECTION
26
22
43
38
1
18
2
37
5
36
14
22
23
19
12
30
4
21
37
21
9
